data;


param d:= 100;
param r:=5;
param p:=0.880000;
param M:=1000;
param U:=
         1         1       -1.706727e+00
         2         1        2.329118e-01
         3         1       -7.040839e-01
         4         1       -3.835224e-01
         5         1       -2.728254e-01
         6         1        5.651656e-01
         7         1        4.197178e-01
         8         1        1.276177e+00
         9         1        6.790899e-01
        10         1       -1.535518e+00
        11         1       -6.875789e-02
        12         1        3.413839e-01
        13         1       -1.595546e+00
        14         1       -2.617454e+00
        15         1       -5.234316e-02
        16         1        1.848171e-01
        17         1        4.971728e-01
        18         1       -1.776999e+00
        19         1       -2.016098e+00
        20         1        9.287481e-01
        21         1        1.072538e+00
        22         1       -6.288162e-01
        23         1        3.041326e-01
        24         1       -4.506282e-01
        25         1        6.669438e-02
        26         1       -3.117318e-01
        27         1        8.185753e-01
        28         1        3.135519e-01
        29         1        3.363349e-01
        30         1        2.971203e+00
        31         1        5.477729e-02
        32         1        1.492340e+00
        33         1       -4.911499e-01
        34         1       -7.878898e-01
        35         1       -7.147485e-01
        36         1        3.236905e-02
        37         1       -8.825605e-01
        38         1        2.381561e-02
        39         1       -1.701302e+00
        40         1       -1.229679e+00
        41         1        1.028177e+00
        42         1        1.737245e+00
        43         1        6.254281e-01
        44         1       -2.540551e+00
        45         1       -1.337564e+00
        46         1        8.059356e-01
        47         1        5.321506e-01
        48         1       -1.317387e+00
        49         1       -1.680986e+00
        50         1        1.885902e+00
        51         1        7.631424e-01
        52         1        1.178095e-01
        53         1       -7.371725e-02
        54         1       -1.164033e+00
        55         1        2.110728e-01
        56         1        7.234900e-01
        57         1       -2.117319e-01
        58         1       -7.940926e-01
        59         1        1.063062e+00
        60         1        5.362531e-02
        61         1        6.515538e-01
        62         1        3.962634e-01
        63         1        9.065622e-01
        64         1        6.401489e-01
        65         1        5.821256e-01
        66         1        1.314498e-01
        67         1       -3.344937e-01
        68         1       -6.879170e-01
        69         1        2.557720e-01
        70         1        2.196456e-02
        71         1        4.725162e-01
        72         1       -1.372293e+00
        73         1        5.019715e-01
        74         1        1.761007e+00
        75         1       -8.881622e-01
        76         1        2.991023e-01
        77         1        2.534099e+00
        78         1        2.213354e+00
        79         1        2.132149e-01
        80         1       -2.001154e-01
        81         1       -6.854098e-01
        82         1        1.318691e+00
        83         1       -9.558723e-01
        84         1        1.161996e+00
        85         1       -1.488824e+00
        86         1       -2.952987e-02
        87         1        6.070933e-01
        88         1       -1.303023e-01
        89         1        1.283232e-01
        90         1       -2.027208e-01
        91         1        4.748098e-01
        92         1       -4.693715e-02
        93         1        1.065144e+00
        94         1        1.234868e+00
        95         1       -1.520514e+00
        96         1        1.956856e-01
        97         1       -3.798749e-01
        98         1        4.970832e-01
        99         1       -1.325216e-01
       100         1        1.209776e+00
         1         2       -1.233220e-01
         2         2       -1.229476e+00
         3         2        1.152589e+00
         4         2       -9.676560e-01
         5         2        1.134811e+00
         6         2       -2.392487e-01
         7         2        2.020504e+00
         8         2        3.792279e-01
         9         2        8.309024e-02
        10         2        1.426923e-01
        11         2       -2.661590e-01
        12         2       -4.494878e-01
        13         2       -1.485990e+00
        14         2        4.425110e-01
        15         2       -8.591307e-01
        16         2       -6.314933e-01
        17         2       -2.393527e-01
        18         2       -1.782939e-01
        19         2        3.708215e-01
        20         2       -1.213015e+00
        21         2       -4.167971e-01
        22         2        1.107656e+00
        23         2        2.003821e+00
        24         2        6.917826e-01
        25         2        4.903824e-01
        26         2       -4.533530e-01
        27         2        7.981951e-01
        28         2       -1.186180e-01
        29         2        1.032421e-01
        30         2       -9.060392e-01
        31         2        1.589868e+00
        32         2        8.915195e-01
        33         2        8.425714e-02
        34         2        1.011844e+00
        35         2       -1.190789e+00
        36         2        1.464530e+00
        37         2       -2.765804e+00
        38         2        5.923854e-01
        39         2        1.142190e+00
        40         2       -8.815834e-01
        41         2        1.090676e+00
        42         2       -1.372285e-01
        43         2        9.901739e-01
        44         2        2.136838e-01
        45         2       -1.410168e+00
        46         2       -1.366239e-02
        47         2       -6.162759e-01
        48         2        1.407979e+00
        49         2       -4.312826e-01
        50         2        1.666117e+00
        51         2       -2.497446e-02
        52         2        1.998096e-01
        53         2       -3.152079e-01
        54         2        3.004575e-01
        55         2       -5.263453e-01
        56         2       -5.466144e-01
        57         2       -6.574399e-01
        58         2        1.269457e+00
        59         2        1.086675e+00
        60         2       -4.919108e-01
        61         2        9.369912e-01
        62         2        1.645716e+00
        63         2       -1.676181e+00
        64         2       -1.516068e-01
        65         2       -1.111093e+00
        66         2        1.432467e+00
        67         2        3.910920e-01
        68         2       -8.996928e-01
        69         2       -1.080898e+00
        70         2       -9.420690e-02
        71         2       -2.963046e-01
        72         2       -1.525338e-01
        73         2        2.078075e+00
        74         2        1.041046e+00
        75         2       -1.470690e+00
        76         2       -5.793129e-02
        77         2       -1.415285e+00
        78         2        5.453184e-01
        79         2        8.500524e-01
        80         2       -9.100315e-01
        81         2       -6.328194e-01
        82         2       -1.058107e-01
        83         2       -1.516208e+00
        84         2       -8.681874e-01
        85         2       -2.983696e+00
        86         2        3.074289e-01
        87         2        1.413363e-01
        88         2        5.501709e-01
        89         2        9.887759e-01
        90         2       -1.797359e+00
        91         2       -6.599798e-01
        92         2       -7.562661e-02
        93         2       -1.588431e+00
        94         2       -3.584808e-01
        95         2        1.277006e+00
        96         2       -4.303385e-01
        97         2       -2.445369e-01
        98         2        1.682241e+00
        99         2        1.264353e+00
       100         2       -2.083266e+00
         1         3       -4.273980e-01
         2         3       -1.608931e+00
         3         3        8.632740e-01
         4         3       -9.901239e-01
         5         3        4.069720e-01
         6         3        2.308570e-01
         7         3       -3.834418e-01
         8         3        9.719964e-01
         9         3        3.092941e-01
        10         3        1.004318e+00
        11         3        1.762389e+00
        12         3       -2.835130e-01
        13         3       -5.354787e-01
        14         3       -1.131954e+00
        15         3       -7.730418e-02
        16         3       -6.685002e-01
        17         3        8.806981e-01
        18         3       -1.407647e+00
        19         3        5.225138e-01
        20         3       -5.534162e-01
        21         3       -1.890422e+00
        22         3       -1.271403e+00
        23         3       -7.035294e-01
        24         3        1.126429e+00
        25         3        9.735072e-01
        26         3        9.863403e-01
        27         3        1.135841e-01
        28         3        1.162604e+00
        29         3       -1.779032e-02
        30         3       -9.121641e-01
        31         3       -1.115432e+00
        32         3        1.274873e-01
        33         3       -6.842037e-01
        34         3        1.661653e+00
        35         3       -1.391930e+00
        36         3       -1.547586e+00
        37         3       -1.757790e-01
        38         3       -4.707263e-01
        39         3        1.529052e+00
        40         3       -8.565055e-02
        41         3       -1.464270e+00
        42         3       -1.073441e+00
        43         3        1.296194e+00
        44         3       -1.526098e+00
        45         3        1.226478e+00
        46         3       -1.034255e+00
        47         3        1.033575e+00
        48         3       -1.065010e+00
        49         3       -8.116612e-02
        50         3        3.685175e-01
        51         3        1.371204e+00
        52         3        8.465963e-01
        53         3        8.221303e-01
        54         3       -2.300233e+00
        55         3        1.709897e+00
        56         3       -1.046284e+00
        57         3       -6.167717e-01
        58         3       -9.093148e-01
        59         3       -1.332423e+00
        60         3        4.845450e-01
        61         3        2.479643e-01
        62         3        2.064995e-01
        63         3        8.251798e-01
        64         3       -5.947354e-01
        65         3        5.021189e-01
        66         3       -4.714783e-01
        67         3        1.124976e-02
        68         3        1.043819e+00
        69         3        1.782144e+00
        70         3       -1.062666e+00
        71         3       -2.170484e-01
        72         3        6.703493e-01
        73         3       -1.715261e+00
        74         3        3.666396e-01
        75         3        9.460919e-01
        76         3       -2.198708e+00
        77         3       -1.343128e-01
        78         3        1.339098e-01
        79         3        1.298696e+00
        80         3        7.567719e-01
        81         3       -5.186343e-01
        82         3        9.866462e-01
        83         3       -1.280636e+00
        84         3        9.486114e-01
        85         3       -2.337369e-01
        86         3       -4.180903e-01
        87         3        1.716944e-01
        88         3       -6.037643e-02
        89         3       -9.320767e-02
        90         3        7.159389e-02
        91         3        9.624870e-01
        92         3        4.785626e-02
        93         3        1.776425e+00
        94         3        8.459310e-01
        95         3        5.419457e-01
        96         3       -7.009398e-01
        97         3       -1.038101e+00
        98         3        8.610782e-01
        99         3       -2.947313e+00
       100         3       -7.957884e-01
         1         4        3.613688e-01
         2         4       -9.098768e-01
         3         4        6.986465e-01
         4         4       -3.149551e-01
         5         4        1.296244e+00
         6         4        1.438257e-01
         7         4        2.373001e-01
         8         4       -5.833224e-01
         9         4       -3.632656e-01
        10         4        9.889810e-02
        11         4       -7.200283e-01
        12         4       -2.776086e-02
        13         4        1.093860e+00
        14         4       -1.241751e+00
        15         4        4.810470e-01
        16         4        2.638738e-01
        17         4       -8.458426e-01
        18         4        7.288871e-01
        19         4        3.091424e-01
        20         4        1.501732e+00
        21         4        8.469852e-01
        22         4       -9.510278e-01
        23         4        2.527841e+00
        24         4        1.078141e+00
        25         4       -1.863462e+00
        26         4       -2.348239e-01
        27         4       -1.246612e+00
        28         4        4.496831e-01
        29         4        1.440257e+00
        30         4       -1.070328e+00
        31         4       -7.207000e-02
        32         4       -1.477045e-01
        33         4       -2.420296e-01
        34         4       -1.885607e-01
        35         4       -4.667842e-02
        36         4       -1.326336e+00
        37         4       -5.242088e-01
        38         4       -2.613245e-01
        39         4        1.278639e+00
        40         4       -2.445509e+00
        41         4        3.011104e+00
        42         4       -9.246254e-01
        43         4        1.083372e+00
        44         4       -5.254664e-01
        45         4        4.713319e-01
        46         4        7.162930e-01
        47         4        5.920630e-01
        48         4       -2.011340e-01
        49         4        7.501971e-01
        50         4        3.965984e-01
        51         4        1.849148e+00
        52         4       -1.034430e+00
        53         4        1.776267e-01
        54         4        9.945363e-01
        55         4       -7.533675e-01
        56         4       -3.740714e-01
        57         4        5.997111e-01
        58         4        3.372953e-02
        59         4        3.853311e-01
        60         4        1.245079e+00
        61         4        2.054795e-01
        62         4        1.357687e+00
        63         4       -3.667105e-01
        64         4       -1.459570e-01
        65         4        1.094573e+00
        66         4        4.496578e-01
        67         4       -2.325374e+00
        68         4        1.448111e-01
        69         4        1.208749e-02
        70         4        5.112913e-01
        71         4       -8.118288e-03
        72         4       -1.122227e+00
        73         4        6.556872e-01
        74         4       -1.250292e+00
        75         4        6.013282e-01
        76         4        7.274496e-01
        77         4        1.765282e+00
        78         4       -1.344821e+00
        79         4       -3.216985e-01
        80         4        1.091007e+00
        81         4        8.487060e-01
        82         4        1.655705e+00
        83         4        1.763379e-01
        84         4       -1.602536e+00
        85         4       -6.960776e-01
        86         4       -2.682299e-01
        87         4        3.545710e-01
        88         4        7.221745e-01
        89         4        3.352111e-01
        90         4       -4.113187e-02
        91         4       -7.172623e-01
        92         4       -1.586538e+00
        93         4       -4.826335e-01
        94         4       -5.961430e-01
        95         4        4.773286e-01
        96         4       -5.251331e-01
        97         4       -4.372299e-01
        98         4        8.047044e-01
        99         4       -1.270705e+00
       100         4        6.107236e-02
         1         5        8.716080e-01
         2         5       -4.727723e-02
         3         5       -1.544346e+00
         4         5       -1.412899e+00
         5         5        1.158522e-01
         6         5       -9.390985e-02
         7         5       -7.952597e-01
         8         5       -1.060237e+00
         9         5       -5.071309e-01
        10         5        6.612760e-01
        11         5        9.160109e-01
        12         5       -8.578029e-01
        13         5       -4.053716e-01
        14         5       -2.016406e+00
        15         5       -1.399063e+00
        16         5        8.792711e-01
        17         5        1.516696e-01
        18         5       -5.221704e-01
        19         5        2.464815e-01
        20         5        6.900303e-01
        21         5        9.521214e-01
        22         5        6.239782e-01
        23         5       -3.074504e-01
        24         5        1.719223e+00
        25         5        1.857492e-01
        26         5       -3.258161e-01
        27         5       -1.164237e+00
        28         5       -1.317388e-01
        29         5       -4.170938e-01
        30         5       -1.547990e+00
        31         5       -5.394918e-01
        32         5        1.185374e+00
        33         5       -1.311700e+00
        34         5       -7.953856e-01
        35         5       -6.452968e-01
        36         5       -1.834600e+00
        37         5        5.518597e-01
        38         5       -8.582639e-01
        39         5        7.737972e-01
        40         5       -4.898521e-01
        41         5        1.275252e+00
        42         5       -2.035346e+00
        43         5        3.055793e-02
        44         5       -9.736238e-01
        45         5       -9.312073e-02
        46         5        1.603195e+00
        47         5       -6.530776e-01
        48         5       -3.933444e-01
        49         5       -1.231140e+00
        50         5        4.312244e-01
        51         5       -3.123861e-01
        52         5        2.150441e-01
        53         5        3.376288e-01
        54         5        7.134732e-01
        55         5       -3.472795e-01
        56         5       -2.355534e-01
        57         5       -5.872343e-01
        58         5       -4.337294e-01
        59         5       -7.405973e-01
        60         5        1.461410e-01
        61         5        7.437330e-01
        62         5        3.001499e-01
        63         5        8.567215e-01
        64         5       -9.156753e-01
        65         5       -5.254471e-01
        66         5       -7.465108e-02
        67         5        6.026460e-01
        68         5       -2.264724e+00
        69         5        7.136644e-01
        70         5        6.985306e-01
        71         5       -9.737473e-01
        72         5       -2.611629e-01
        73         5       -6.777811e-01
        74         5       -1.042800e+00
        75         5       -3.364792e-01
        76         5       -7.570859e-03
        77         5       -3.973238e-01
        78         5       -1.896824e-01
        79         5       -5.064556e-01
        80         5       -4.299954e-01
        81         5        6.041891e-01
        82         5        1.009129e+00
        83         5       -7.062547e-01
        84         5       -9.199107e-01
        85         5       -9.573756e-01
        86         5       -1.222049e-01
        87         5        6.954995e-01
        88         5       -1.121824e+00
        89         5       -3.022246e-01
        90         5       -2.043446e+00
        91         5        2.493745e-01
        92         5        1.295428e-01
        93         5        1.159190e-01
        94         5        2.306728e+00
        95         5        5.299188e-01
        96         5       -9.895565e-01
        97         5        1.027228e-01
        98         5       -5.461114e-01
        99         5       -3.175993e-01
       100         5        3.417868e-01
;

param theta:=
    1       -1.621461e+00
    2        1.003546e+00
    3       -4.972071e-01
    4        2.637335e-01
    5       -1.084080e+00
;
param X_true:=
    1        2.006549e+00
    2       -1.000234e+00
    3        3.727545e+00
    4        1.591707e+00
    5        1.595132e+00
    6       -1.131537e+00
    7        2.462473e+00
    8       -1.176442e+00
    9       -7.175510e-01
   10        1.442834e+00
   11       -2.214812e+00
   12        5.894753e-02
   13        2.090042e+00
   14        7.109448e+00
   15        9.046954e-01
   16       -1.484631e+00
   17       -1.871736e+00
   18        4.160607e+00
   19        3.195689e+00
   20       -2.800074e+00
   21       -2.026219e+00
   22        1.836076e+00
   23        2.867565e+00
   24       -7.145898e-01
   25       -7.928802e-01
   26       -1.486354e-01
   27        3.506152e-01
   28       -9.440943e-01
   29        3.991067e-01
   30       -3.877543e+00
   31        2.627133e+00
   32       -2.912472e+00
   33        2.579284e+00
   34        2.279311e+00
   35        1.343245e+00
   36        3.825763e+00
   37       -1.993688e+00
   38        1.651425e+00
   39        2.642941e+00
   40        1.037828e+00
   41       -4.329061e-01
   42       -4.582451e-01
   43       -4.123043e-01
   44        6.009536e+00
   45        3.690807e-01
   46       -2.355346e+00
   47       -1.131089e+00
   48        4.451964e+00
   49        3.865703e+00
   50       -1.932005e+00
   51       -1.117907e+00
   52       -9.173778e-01
   53       -9.247356e-01
   54        2.821480e+00
   55       -1.542841e+00
   56       -1.044740e+00
   57        7.849799e-01
   58        3.492760e+00
   59        9.337978e-01
   60       -6.515854e-01
   61       -9.915188e-01
   62        9.390342e-01
   63       -4.587834e+00
   64        5.975722e-02
   65       -1.450282e+00
   66        1.658346e+00
   67       -3.373416e-01
   68        2.186887e+00
   69       -3.156032e+00
   70       -2.242090e-01
   71        9.787490e-02
   72        1.725895e+00
   73        3.032054e+00
   74       -1.192227e+00
   75        1.717198e-02
   76        7.501540e-01
   77       -4.566170e+00
   78       -3.257240e+00
   79        3.258221e-01
   80       -2.111675e-01
   81        3.030132e-01
   82       -3.392271e+00
   83        1.477208e+00
   84       -2.652439e+00
   85        3.903001e-01
   86        6.260168e-01
   87       -1.588373e+00
   88        2.200031e+00
   89        1.246597e+00
   90        6.937851e-01
   91       -2.370269e+00
   92       -5.824406e-01
   93       -4.457356e+00
   94       -5.440545e+00
   95        3.028942e+00
   96        5.336143e-01
   97        6.600277e-01
   98        1.258328e+00
   99        2.958316e+00
  100       -4.011003e+00
;
param X:=
    1       -1.378496e+00
    2        5.258615e-01
    3       -4.735607e-01
    4        1.239193e+00
    5        2.762859e-01
    6       -1.407467e+00
    7       -1.308689e+00
    8        1.473458e+00
    9       -4.379132e-01
   10       -8.885498e-01
   11        8.438588e-01
   12        1.006361e+00
   13        2.103526e+00
   14        9.525152e-02
   15       -3.422642e-01
   16        2.366005e+00
   17       -1.029769e+00
   18        1.439144e+00
   19       -1.754021e+00
   20       -1.189061e+00
   21        1.014720e+00
   22        9.031088e-01
   23        1.083006e+00
   24        2.132533e+00
   25        1.063860e+00
   26        1.435494e+00
   27        1.629865e+00
   28        1.201736e-01
   29        1.810046e+00
   30       -7.826856e-01
   31       -1.482348e-02
   32       -2.912472e+00
   33        9.345711e-01
   34       -6.027842e-01
   35       -9.476546e-01
   36        3.825763e+00
   37       -1.713069e+00
   38       -4.881336e-01
   39        3.025463e-01
   40       -8.860249e-01
   41        1.226089e+00
   42        2.056472e-01
   43       -7.790547e-01
   44       -2.359260e-01
   45       -9.778149e-01
   46       -1.944201e+00
   47        6.945083e-01
   48       -1.010408e+00
   49       -2.562073e+00
   50       -1.932005e+00
   51        3.986131e-01
   52        3.981642e-01
   53        2.767279e-02
   54       -6.989199e-01
   55       -4.171024e-02
   56       -5.692635e-01
   57        4.072405e-01
   58        3.492760e+00
   59       -3.606298e-02
   60        1.136494e+00
   61        9.333653e-01
   62       -5.037884e-01
   63        1.320955e-01
   64        4.766848e-01
   65       -2.009122e+00
   66        9.005931e-01
   67       -8.754204e-01
   68        1.033759e+00
   69        6.278178e-01
   70       -1.329071e+00
   71        6.938094e-01
   72       -1.111535e+00
   73        3.032054e+00
   74        2.532264e-01
   75       -2.488063e+00
   76        7.501540e-01
   77       -7.651577e-01
   78        5.488680e-01
   79        1.177605e-01
   80       -9.101567e-01
   81        3.030132e-01
   82       -4.135912e-01
   83       -2.104680e-01
   84       -2.652439e+00
   85        4.779650e-01
   86       -1.444997e-01
   87       -1.588373e+00
   88       -1.075846e+00
   89        6.408232e-01
   90        6.937851e-01
   91       -1.434453e+00
   92       -5.824406e-01
   93        1.255445e+00
   94       -5.440545e+00
   95       -7.539191e-01
   96        1.241263e+00
   97        1.084462e-01
   98        1.996306e-01
   99       -1.018371e+00
  100        4.547615e-02
;
param outliervec:=
    1    1
    2    1
    3    1
    4    1
    5    1
    6    1
    7    1
    8    1
    9    1
   10    1
   11    1
   12    1
   13    1
   14    1
   15    1
   16    1
   17    1
   18    1
   19    1
   20    1
   21    1
   22    1
   23    1
   24    1
   25    1
   26    1
   27    1
   28    1
   29    1
   30    1
   31    1
   32    0
   33    1
   34    1
   35    1
   36    0
   37    1
   38    1
   39    1
   40    1
   41    1
   42    1
   43    1
   44    1
   45    1
   46    1
   47    1
   48    1
   49    1
   50    0
   51    1
   52    1
   53    1
   54    1
   55    1
   56    1
   57    1
   58    0
   59    1
   60    1
   61    1
   62    1
   63    1
   64    1
   65    1
   66    1
   67    1
   68    1
   69    1
   70    1
   71    1
   72    1
   73    0
   74    1
   75    1
   76    0
   77    1
   78    1
   79    1
   80    1
   81    0
   82    1
   83    1
   84    0
   85    1
   86    1
   87    0
   88    1
   89    1
   90    0
   91    1
   92    0
   93    1
   94    0
   95    1
   96    1
   97    1
   98    1
   99    1
  100    1
;